(set-info :original "/var/folders/xz/sgqbj6yn0yv_1mpy6_jqympm0000gn/T/sea-8pU2io/init-4-n-u.pp.ms.o.bc")
(set-info :authors "SeaHorn v.0.1.0-rc3")
(declare-rel verifier.error (Bool Bool Bool ))
(declare-rel __JVERIFIER_assert@_call (Int ))
(declare-rel __JVERIFIER_assert@_ret (Int ))
(declare-rel __JVERIFIER_assert (Bool Bool Bool Int ))
(declare-rel main@entry (Int ))
(declare-rel main@_bb (Int Int Int (Array Int Int) ))
(declare-rel main@_bb13 (Int Int (Array Int Int) Int ))
(declare-rel main@_bb15 (Int Int (Array Int Int) Int Int ))
(declare-rel main@_bb17 (Int Int (Array Int Int) Int Int Int ))
(declare-rel main@_bb19 (Int Int (Array Int Int) Int Int Int Int ))
(declare-rel main@verifier.error.split ())
(declare-rel main@_bb3 (Int Int Int Int (Array Int Int) ))
(declare-rel main@_bb5 (Int Int Int Int Int (Array Int Int) ))
(declare-rel main@_bb7 (Int Int Int Int Int (Array Int Int) Int ))
(declare-var __JVERIFIER_assert@%_call1_0 Bool )
(declare-var __JVERIFIER_assert@arg.0_0 Int )
(declare-var __JVERIFIER_assert@_call_0 Bool )
(declare-var __JVERIFIER_assert@_ret_0 Bool )
(declare-var main@%_16_0 Int )
(declare-var main@%_17_0 Int )
(declare-var main@%_18_0 Int )
(declare-var main@%_19_0 Int )
(declare-var main@%_20_0 Int )
(declare-var main@%_21_0 Int )
(declare-var main@%_22_0 Int )
(declare-var main@%_14_0 Bool )
(declare-var main@%_11_0 Bool )
(declare-var main@%_8_0 Bool )
(declare-var main@%_61_0 Bool )
(declare-var main@%_43_0 Int )
(declare-var main@%_44_0 Int )
(declare-var main@%_45_0 Int )
(declare-var main@%_46_0 Int )
(declare-var main@%_47_0 Int )
(declare-var main@%_48_0 Int )
(declare-var main@%_49_0 Int )
(declare-var main@%_50_0 Int )
(declare-var main@%_51_0 Bool )
(declare-var main@%_53_0 Bool )
(declare-var main@%_41_0 Bool )
(declare-var main@%_38_0 Bool )
(declare-var main@%_35_0 Bool )
(declare-var main@%_32_0 Bool )
(declare-var main@%_5_0 Bool )
(declare-var main@%_1_0 Int )
(declare-var main@%_2_0 Int )
(declare-var @__VERIFIER_nondet_int_0 Int )
(declare-var main@entry_0 Bool )
(declare-var main@%sm1_0 (Array Int Int) )
(declare-var main@%_0_0 Int )
(declare-var main@%_3_0 Int )
(declare-var main@_bb_0 Bool )
(declare-var main@%shadow.mem.0.0_0 (Array Int Int) )
(declare-var main@%.0.i_0 Int )
(declare-var main@%shadow.mem.0.0_1 (Array Int Int) )
(declare-var main@%.0.i_1 Int )
(declare-var main@_bb12_0 Bool )
(declare-var main@_bb13_0 Bool )
(declare-var main@%.1.i_0 Int )
(declare-var main@%.1.i_1 Int )
(declare-var main@_bb2_0 Bool )
(declare-var main@_bb3_0 Bool )
(declare-var main@%shadow.mem.0.1_0 (Array Int Int) )
(declare-var main@%.01.i_0 Int )
(declare-var main@%shadow.mem.0.1_1 (Array Int Int) )
(declare-var main@%.01.i_1 Int )
(declare-var main@_bb14_0 Bool )
(declare-var main@_bb15_0 Bool )
(declare-var main@%.12.i_0 Int )
(declare-var main@%.12.i_1 Int )
(declare-var main@_bb23_0 Bool )
(declare-var main@%_60_0 Int )
(declare-var main@%.1.i_2 Int )
(declare-var main@_bb16_0 Bool )
(declare-var main@_bb17_0 Bool )
(declare-var main@%.14.i_0 Int )
(declare-var main@%.14.i_1 Int )
(declare-var main@_bb22_0 Bool )
(declare-var main@%_58_0 Int )
(declare-var main@%.12.i_2 Int )
(declare-var main@_bb18_0 Bool )
(declare-var main@_bb19_0 Bool )
(declare-var main@%.16.i_0 Int )
(declare-var main@%.16.i_1 Int )
(declare-var main@_bb21_0 Bool )
(declare-var main@%_56_0 Int )
(declare-var main@%.14.i_2 Int )
(declare-var main@_bb20_0 Bool )
(declare-var main@%_52_0 Int )
(declare-var main@postcall_0 Bool )
(declare-var main@%_54_0 Int )
(declare-var main@_bb19_1 Bool )
(declare-var main@%.16.i_2 Int )
(declare-var main@precall_0 Bool )
(declare-var main@__JVERIFIER_assert_0 Bool )
(declare-var main@_bb24_0 Bool )
(declare-var main@verifier.error_0 Bool )
(declare-var main@verifier.error.split_0 Bool )
(declare-var main@_bb11_0 Bool )
(declare-var main@%_29_0 Int )
(declare-var main@%.0.i_2 Int )
(declare-var main@_bb4_0 Bool )
(declare-var main@_bb5_0 Bool )
(declare-var main@%shadow.mem.0.2_0 (Array Int Int) )
(declare-var main@%.03.i_0 Int )
(declare-var main@%shadow.mem.0.2_1 (Array Int Int) )
(declare-var main@%.03.i_1 Int )
(declare-var main@_bb10_0 Bool )
(declare-var main@%_27_0 Int )
(declare-var main@%.01.i_2 Int )
(declare-var main@_bb6_0 Bool )
(declare-var main@_bb7_0 Bool )
(declare-var main@%shadow.mem.0.3_0 (Array Int Int) )
(declare-var main@%.05.i_0 Int )
(declare-var main@%shadow.mem.0.3_1 (Array Int Int) )
(declare-var main@%.05.i_1 Int )
(declare-var main@_bb9_0 Bool )
(declare-var main@%_25_0 Int )
(declare-var main@%.03.i_2 Int )
(declare-var main@_bb8_0 Bool )
(declare-var main@%sm_0 (Array Int Int) )
(declare-var main@%_23_0 Int )
(declare-var main@_bb7_1 Bool )
(declare-var main@%shadow.mem.0.3_2 (Array Int Int) )
(declare-var main@%.05.i_2 Int )
(rule (verifier.error false false false))
(rule (verifier.error false true true))
(rule (verifier.error true false true))
(rule (verifier.error true true true))
(rule (__JVERIFIER_assert true true true __JVERIFIER_assert@arg.0_0))
(rule (__JVERIFIER_assert false true true __JVERIFIER_assert@arg.0_0))
(rule (__JVERIFIER_assert false false false __JVERIFIER_assert@arg.0_0))
(rule (__JVERIFIER_assert@_call __JVERIFIER_assert@arg.0_0))
(rule (=> (and (__JVERIFIER_assert@_call __JVERIFIER_assert@arg.0_0)
         true
         (= __JVERIFIER_assert@%_call1_0 (= __JVERIFIER_assert@arg.0_0 0))
         (not __JVERIFIER_assert@%_call1_0)
         (=> __JVERIFIER_assert@_ret_0
             (and __JVERIFIER_assert@_ret_0 __JVERIFIER_assert@_call_0))
         __JVERIFIER_assert@_ret_0)
    (__JVERIFIER_assert@_ret __JVERIFIER_assert@arg.0_0)))
(rule (=> (__JVERIFIER_assert@_ret __JVERIFIER_assert@arg.0_0)
    (__JVERIFIER_assert true false false __JVERIFIER_assert@arg.0_0)))
(rule (main@entry @__VERIFIER_nondet_int_0))
(rule (=> (and (main@entry @__VERIFIER_nondet_int_0)
         true
         (> main@%_0_0 0)
         (= main@%_1_0 main@%_0_0)
         (= main@%_2_0 @__VERIFIER_nondet_int_0)
         (=> main@_bb_0 (and main@_bb_0 main@entry_0))
         (=> (and main@_bb_0 main@entry_0)
             (= main@%shadow.mem.0.0_0 main@%sm1_0))
         (=> (and main@_bb_0 main@entry_0) (= main@%.0.i_0 0))
         (=> (and main@_bb_0 main@entry_0)
             (= main@%shadow.mem.0.0_1 main@%shadow.mem.0.0_0))
         (=> (and main@_bb_0 main@entry_0) (= main@%.0.i_1 main@%.0.i_0))
         main@_bb_0)
    (main@_bb main@%.0.i_1 main@%_0_0 main@%_3_0 main@%shadow.mem.0.0_1)))
(rule (=> (and (main@_bb main@%.0.i_0 main@%_0_0 main@%_3_0 main@%shadow.mem.0.0_0)
         true
         (= main@%_5_0 (< main@%.0.i_0 1000))
         (=> main@_bb12_0 (and main@_bb12_0 main@_bb_0))
         (=> (and main@_bb12_0 main@_bb_0) (not main@%_5_0))
         (=> main@_bb13_0 (and main@_bb13_0 main@_bb12_0))
         (=> (and main@_bb13_0 main@_bb12_0) (= main@%.1.i_0 0))
         (=> (and main@_bb13_0 main@_bb12_0) (= main@%.1.i_1 main@%.1.i_0))
         main@_bb13_0)
    (main@_bb13 main@%_0_0 main@%_3_0 main@%shadow.mem.0.0_0 main@%.1.i_1)))
(rule (=> (and (main@_bb main@%.0.i_0 main@%_0_0 main@%_3_0 main@%shadow.mem.0.0_0)
         true
         (= main@%_5_0 (< main@%.0.i_0 1000))
         (=> main@_bb2_0 (and main@_bb2_0 main@_bb_0))
         (=> (and main@_bb2_0 main@_bb_0) main@%_5_0)
         (=> main@_bb3_0 (and main@_bb3_0 main@_bb2_0))
         (=> (and main@_bb3_0 main@_bb2_0)
             (= main@%shadow.mem.0.1_0 main@%shadow.mem.0.0_0))
         (=> (and main@_bb3_0 main@_bb2_0) (= main@%.01.i_0 0))
         (=> (and main@_bb3_0 main@_bb2_0)
             (= main@%shadow.mem.0.1_1 main@%shadow.mem.0.1_0))
         (=> (and main@_bb3_0 main@_bb2_0) (= main@%.01.i_1 main@%.01.i_0))
         main@_bb3_0)
    (main@_bb3 main@%.0.i_0
               main@%_0_0
               main@%.01.i_1
               main@%_3_0
               main@%shadow.mem.0.1_1)))
(rule (=> (and (main@_bb13 main@%_0_0 main@%_3_0 main@%shadow.mem.0.0_0 main@%.1.i_0)
         true
         (= main@%_32_0 (< main@%.1.i_0 1000))
         main@%_32_0
         (=> main@_bb14_0 (and main@_bb14_0 main@_bb13_0))
         (=> main@_bb15_0 (and main@_bb15_0 main@_bb14_0))
         (=> (and main@_bb15_0 main@_bb14_0) (= main@%.12.i_0 0))
         (=> (and main@_bb15_0 main@_bb14_0) (= main@%.12.i_1 main@%.12.i_0))
         main@_bb15_0)
    (main@_bb15 main@%_0_0
                main@%_3_0
                main@%shadow.mem.0.0_0
                main@%.1.i_0
                main@%.12.i_1)))
(rule (let ((a!1 (and (main@_bb15 main@%_0_0
                            main@%_3_0
                            main@%shadow.mem.0.0_0
                            main@%.1.i_0
                            main@%.12.i_0)
                true
                (= main@%_35_0 (< main@%.12.i_0 1500))
                (=> main@_bb23_0 (and main@_bb23_0 main@_bb15_0))
                (=> (and main@_bb23_0 main@_bb15_0) (not main@%_35_0))
                (=> main@_bb23_0 (= main@%_60_0 (+ main@%.1.i_0 1)))
                (=> main@_bb13_0 (and main@_bb13_0 main@_bb23_0))
                (=> (and main@_bb13_0 main@_bb23_0)
                    (= main@%.1.i_1 main@%_60_0))
                (=> (and main@_bb13_0 main@_bb23_0)
                    (= main@%.1.i_2 main@%.1.i_1))
                main@_bb13_0)))
  (=> a!1
      (main@_bb13 main@%_0_0 main@%_3_0 main@%shadow.mem.0.0_0 main@%.1.i_2))))
(rule (=> (and (main@_bb15 main@%_0_0
                     main@%_3_0
                     main@%shadow.mem.0.0_0
                     main@%.1.i_0
                     main@%.12.i_0)
         true
         (= main@%_35_0 (< main@%.12.i_0 1500))
         (=> main@_bb16_0 (and main@_bb16_0 main@_bb15_0))
         (=> (and main@_bb16_0 main@_bb15_0) main@%_35_0)
         (=> main@_bb17_0 (and main@_bb17_0 main@_bb16_0))
         (=> (and main@_bb17_0 main@_bb16_0) (= main@%.14.i_0 0))
         (=> (and main@_bb17_0 main@_bb16_0) (= main@%.14.i_1 main@%.14.i_0))
         main@_bb17_0)
    (main@_bb17 main@%_0_0
                main@%_3_0
                main@%shadow.mem.0.0_0
                main@%.1.i_0
                main@%.12.i_0
                main@%.14.i_1)))
(rule (let ((a!1 (and (main@_bb17 main@%_0_0
                            main@%_3_0
                            main@%shadow.mem.0.0_0
                            main@%.1.i_0
                            main@%.12.i_0
                            main@%.14.i_0)
                true
                (= main@%_38_0 (< main@%.14.i_0 1800))
                (=> main@_bb22_0 (and main@_bb22_0 main@_bb17_0))
                (=> (and main@_bb22_0 main@_bb17_0) (not main@%_38_0))
                (=> main@_bb22_0 (= main@%_58_0 (+ main@%.12.i_0 1)))
                (=> main@_bb15_0 (and main@_bb15_0 main@_bb22_0))
                (=> (and main@_bb15_0 main@_bb22_0)
                    (= main@%.12.i_1 main@%_58_0))
                (=> (and main@_bb15_0 main@_bb22_0)
                    (= main@%.12.i_2 main@%.12.i_1))
                main@_bb15_0)))
  (=> a!1
      (main@_bb15 main@%_0_0
                  main@%_3_0
                  main@%shadow.mem.0.0_0
                  main@%.1.i_0
                  main@%.12.i_2))))
(rule (=> (and (main@_bb17 main@%_0_0
                     main@%_3_0
                     main@%shadow.mem.0.0_0
                     main@%.1.i_0
                     main@%.12.i_0
                     main@%.14.i_0)
         true
         (= main@%_38_0 (< main@%.14.i_0 1800))
         (=> main@_bb18_0 (and main@_bb18_0 main@_bb17_0))
         (=> (and main@_bb18_0 main@_bb17_0) main@%_38_0)
         (=> main@_bb19_0 (and main@_bb19_0 main@_bb18_0))
         (=> (and main@_bb19_0 main@_bb18_0) (= main@%.16.i_0 0))
         (=> (and main@_bb19_0 main@_bb18_0) (= main@%.16.i_1 main@%.16.i_0))
         main@_bb19_0)
    (main@_bb19 main@%_0_0
                main@%_3_0
                main@%shadow.mem.0.0_0
                main@%.16.i_1
                main@%.1.i_0
                main@%.12.i_0
                main@%.14.i_0)))
(rule (let ((a!1 (and (main@_bb19 main@%_0_0
                            main@%_3_0
                            main@%shadow.mem.0.0_0
                            main@%.16.i_0
                            main@%.1.i_0
                            main@%.12.i_0
                            main@%.14.i_0)
                true
                (= main@%_41_0 (< main@%.16.i_0 2000))
                (=> main@_bb21_0 (and main@_bb21_0 main@_bb19_0))
                (=> (and main@_bb21_0 main@_bb19_0) (not main@%_41_0))
                (=> main@_bb21_0 (= main@%_56_0 (+ main@%.14.i_0 1)))
                (=> main@_bb17_0 (and main@_bb17_0 main@_bb21_0))
                (=> (and main@_bb17_0 main@_bb21_0)
                    (= main@%.14.i_1 main@%_56_0))
                (=> (and main@_bb17_0 main@_bb21_0)
                    (= main@%.14.i_2 main@%.14.i_1))
                main@_bb17_0)))
  (=> a!1
      (main@_bb17 main@%_0_0
                  main@%_3_0
                  main@%shadow.mem.0.0_0
                  main@%.1.i_0
                  main@%.12.i_0
                  main@%.14.i_2))))
(rule (let ((a!1 (=> main@_bb20_0
               (= main@%_44_0 (+ main@%_0_0 (* 0 609468416) (* main@%_43_0 4)))))
      (a!2 (=> main@_bb20_0 (= main@%_46_0 (+ main@%_44_0 (* main@%_45_0 4)))))
      (a!3 (=> main@_bb20_0 (= main@%_48_0 (+ main@%_46_0 (* main@%_47_0 4)))))
      (a!4 (=> main@_bb20_0 (= main@%_49_0 (+ main@%_48_0 (* main@%.16.i_0 4))))))
(let ((a!5 (and (main@_bb19 main@%_0_0
                            main@%_3_0
                            main@%shadow.mem.0.0_0
                            main@%.16.i_0
                            main@%.1.i_0
                            main@%.12.i_0
                            main@%.14.i_0)
                true
                (= main@%_41_0 (< main@%.16.i_0 2000))
                (=> main@_bb20_0 (and main@_bb20_0 main@_bb19_0))
                (=> (and main@_bb20_0 main@_bb19_0) main@%_41_0)
                (=> main@_bb20_0 (= main@%_43_0 (* main@%.1.i_0 1105032704)))
                a!1
                (=> main@_bb20_0 (or (<= main@%_0_0 0) (> main@%_44_0 0)))
                (=> main@_bb20_0 (= main@%_45_0 (* main@%.12.i_0 3600000)))
                a!2
                (=> main@_bb20_0 (or (<= main@%_44_0 0) (> main@%_46_0 0)))
                (=> main@_bb20_0 (= main@%_47_0 (* main@%.14.i_0 2000)))
                a!3
                (=> main@_bb20_0 (or (<= main@%_46_0 0) (> main@%_48_0 0)))
                a!4
                (=> main@_bb20_0 (or (<= main@%_48_0 0) (> main@%_49_0 0)))
                (=> main@_bb20_0 (> main@%_48_0 0))
                (=> main@_bb20_0
                    (= main@%_50_0 (select main@%shadow.mem.0.0_0 main@%_49_0)))
                (=> main@_bb20_0 (= main@%_51_0 (= main@%_50_0 main@%_3_0)))
                (=> main@_bb20_0 (= main@%_52_0 (ite main@%_51_0 1 0)))
                (=> main@postcall_0 (and main@postcall_0 main@_bb20_0))
                (=> (and main@postcall_0 main@_bb20_0) main@%_53_0)
                (__JVERIFIER_assert main@postcall_0 false false main@%_52_0)
                (=> main@postcall_0 (= main@%_54_0 (+ main@%.16.i_0 1)))
                (=> main@_bb19_1 (and main@_bb19_1 main@postcall_0))
                (=> (and main@_bb19_1 main@postcall_0)
                    (= main@%.16.i_1 main@%_54_0))
                (=> (and main@_bb19_1 main@postcall_0)
                    (= main@%.16.i_2 main@%.16.i_1))
                main@_bb19_1)))
  (=> a!5
      (main@_bb19 main@%_0_0
                  main@%_3_0
                  main@%shadow.mem.0.0_0
                  main@%.16.i_2
                  main@%.1.i_0
                  main@%.12.i_0
                  main@%.14.i_0)))))
(rule (let ((a!1 (=> main@_bb20_0
               (= main@%_44_0 (+ main@%_0_0 (* 0 609468416) (* main@%_43_0 4)))))
      (a!2 (=> main@_bb20_0 (= main@%_46_0 (+ main@%_44_0 (* main@%_45_0 4)))))
      (a!3 (=> main@_bb20_0 (= main@%_48_0 (+ main@%_46_0 (* main@%_47_0 4)))))
      (a!4 (=> main@_bb20_0 (= main@%_49_0 (+ main@%_48_0 (* main@%.16.i_0 4))))))
(let ((a!5 (and (main@_bb19 main@%_0_0
                            main@%_3_0
                            main@%shadow.mem.0.0_0
                            main@%.16.i_0
                            main@%.1.i_0
                            main@%.12.i_0
                            main@%.14.i_0)
                true
                (= main@%_41_0 (< main@%.16.i_0 2000))
                (=> main@_bb20_0 (and main@_bb20_0 main@_bb19_0))
                (=> (and main@_bb20_0 main@_bb19_0) main@%_41_0)
                (=> main@_bb20_0 (= main@%_43_0 (* main@%.1.i_0 1105032704)))
                a!1
                (=> main@_bb20_0 (or (<= main@%_0_0 0) (> main@%_44_0 0)))
                (=> main@_bb20_0 (= main@%_45_0 (* main@%.12.i_0 3600000)))
                a!2
                (=> main@_bb20_0 (or (<= main@%_44_0 0) (> main@%_46_0 0)))
                (=> main@_bb20_0 (= main@%_47_0 (* main@%.14.i_0 2000)))
                a!3
                (=> main@_bb20_0 (or (<= main@%_46_0 0) (> main@%_48_0 0)))
                a!4
                (=> main@_bb20_0 (or (<= main@%_48_0 0) (> main@%_49_0 0)))
                (=> main@_bb20_0 (> main@%_48_0 0))
                (=> main@_bb20_0
                    (= main@%_50_0 (select main@%shadow.mem.0.0_0 main@%_49_0)))
                (=> main@_bb20_0 (= main@%_51_0 (= main@%_50_0 main@%_3_0)))
                (=> main@_bb20_0 (= main@%_52_0 (ite main@%_51_0 1 0)))
                (=> main@precall_0 (and main@precall_0 main@_bb20_0))
                (=> (and main@precall_0 main@_bb20_0) (not main@%_53_0))
                (=> main@__JVERIFIER_assert_0
                    (and main@__JVERIFIER_assert_0 main@precall_0))
                (=> main@__JVERIFIER_assert_0 (= main@%_61_0 (= main@%_52_0 0)))
                (=> main@__JVERIFIER_assert_0 main@%_61_0)
                (=> main@_bb24_0 (and main@_bb24_0 main@__JVERIFIER_assert_0))
                (=> main@verifier.error_0
                    (and main@verifier.error_0 main@_bb24_0))
                (=> main@verifier.error.split_0
                    (and main@verifier.error.split_0 main@verifier.error_0))
                main@verifier.error.split_0)))
  (=> a!5 main@verifier.error.split))))
(rule (let ((a!1 (and (main@_bb3 main@%.0.i_0
                           main@%_0_0
                           main@%.01.i_0
                           main@%_3_0
                           main@%shadow.mem.0.1_0)
                true
                (= main@%_8_0 (< main@%.01.i_0 1500))
                (=> main@_bb11_0 (and main@_bb11_0 main@_bb3_0))
                (=> (and main@_bb11_0 main@_bb3_0) (not main@%_8_0))
                (=> main@_bb11_0 (= main@%_29_0 (+ main@%.0.i_0 1)))
                (=> main@_bb_0 (and main@_bb_0 main@_bb11_0))
                (=> (and main@_bb_0 main@_bb11_0)
                    (= main@%shadow.mem.0.0_0 main@%shadow.mem.0.1_0))
                (=> (and main@_bb_0 main@_bb11_0) (= main@%.0.i_1 main@%_29_0))
                (=> (and main@_bb_0 main@_bb11_0)
                    (= main@%shadow.mem.0.0_1 main@%shadow.mem.0.0_0))
                (=> (and main@_bb_0 main@_bb11_0) (= main@%.0.i_2 main@%.0.i_1))
                main@_bb_0)))
  (=> a!1 (main@_bb main@%.0.i_2 main@%_0_0 main@%_3_0 main@%shadow.mem.0.0_1))))
(rule (=> (and (main@_bb3 main@%.0.i_0
                    main@%_0_0
                    main@%.01.i_0
                    main@%_3_0
                    main@%shadow.mem.0.1_0)
         true
         (= main@%_8_0 (< main@%.01.i_0 1500))
         (=> main@_bb4_0 (and main@_bb4_0 main@_bb3_0))
         (=> (and main@_bb4_0 main@_bb3_0) main@%_8_0)
         (=> main@_bb5_0 (and main@_bb5_0 main@_bb4_0))
         (=> (and main@_bb5_0 main@_bb4_0)
             (= main@%shadow.mem.0.2_0 main@%shadow.mem.0.1_0))
         (=> (and main@_bb5_0 main@_bb4_0) (= main@%.03.i_0 0))
         (=> (and main@_bb5_0 main@_bb4_0)
             (= main@%shadow.mem.0.2_1 main@%shadow.mem.0.2_0))
         (=> (and main@_bb5_0 main@_bb4_0) (= main@%.03.i_1 main@%.03.i_0))
         main@_bb5_0)
    (main@_bb5 main@%.0.i_0
               main@%_0_0
               main@%.01.i_0
               main@%.03.i_1
               main@%_3_0
               main@%shadow.mem.0.2_1)))
(rule (let ((a!1 (and (main@_bb5 main@%.0.i_0
                           main@%_0_0
                           main@%.01.i_0
                           main@%.03.i_0
                           main@%_3_0
                           main@%shadow.mem.0.2_0)
                true
                (= main@%_11_0 (< main@%.03.i_0 1800))
                (=> main@_bb10_0 (and main@_bb10_0 main@_bb5_0))
                (=> (and main@_bb10_0 main@_bb5_0) (not main@%_11_0))
                (=> main@_bb10_0 (= main@%_27_0 (+ main@%.01.i_0 1)))
                (=> main@_bb3_0 (and main@_bb3_0 main@_bb10_0))
                (=> (and main@_bb3_0 main@_bb10_0)
                    (= main@%shadow.mem.0.1_0 main@%shadow.mem.0.2_0))
                (=> (and main@_bb3_0 main@_bb10_0)
                    (= main@%.01.i_1 main@%_27_0))
                (=> (and main@_bb3_0 main@_bb10_0)
                    (= main@%shadow.mem.0.1_1 main@%shadow.mem.0.1_0))
                (=> (and main@_bb3_0 main@_bb10_0)
                    (= main@%.01.i_2 main@%.01.i_1))
                main@_bb3_0)))
  (=> a!1
      (main@_bb3 main@%.0.i_0
                 main@%_0_0
                 main@%.01.i_2
                 main@%_3_0
                 main@%shadow.mem.0.1_1))))
(rule (=> (and (main@_bb5 main@%.0.i_0
                    main@%_0_0
                    main@%.01.i_0
                    main@%.03.i_0
                    main@%_3_0
                    main@%shadow.mem.0.2_0)
         true
         (= main@%_11_0 (< main@%.03.i_0 1800))
         (=> main@_bb6_0 (and main@_bb6_0 main@_bb5_0))
         (=> (and main@_bb6_0 main@_bb5_0) main@%_11_0)
         (=> main@_bb7_0 (and main@_bb7_0 main@_bb6_0))
         (=> (and main@_bb7_0 main@_bb6_0)
             (= main@%shadow.mem.0.3_0 main@%shadow.mem.0.2_0))
         (=> (and main@_bb7_0 main@_bb6_0) (= main@%.05.i_0 0))
         (=> (and main@_bb7_0 main@_bb6_0)
             (= main@%shadow.mem.0.3_1 main@%shadow.mem.0.3_0))
         (=> (and main@_bb7_0 main@_bb6_0) (= main@%.05.i_1 main@%.05.i_0))
         main@_bb7_0)
    (main@_bb7 main@%.0.i_0
               main@%_0_0
               main@%.01.i_0
               main@%.03.i_0
               main@%.05.i_1
               main@%shadow.mem.0.3_1
               main@%_3_0)))
(rule (let ((a!1 (and (main@_bb7 main@%.0.i_0
                           main@%_0_0
                           main@%.01.i_0
                           main@%.03.i_0
                           main@%.05.i_0
                           main@%shadow.mem.0.3_0
                           main@%_3_0)
                true
                (= main@%_14_0 (< main@%.05.i_0 2000))
                (=> main@_bb9_0 (and main@_bb9_0 main@_bb7_0))
                (=> (and main@_bb9_0 main@_bb7_0) (not main@%_14_0))
                (=> main@_bb9_0 (= main@%_25_0 (+ main@%.03.i_0 1)))
                (=> main@_bb5_0 (and main@_bb5_0 main@_bb9_0))
                (=> (and main@_bb5_0 main@_bb9_0)
                    (= main@%shadow.mem.0.2_0 main@%shadow.mem.0.3_0))
                (=> (and main@_bb5_0 main@_bb9_0) (= main@%.03.i_1 main@%_25_0))
                (=> (and main@_bb5_0 main@_bb9_0)
                    (= main@%shadow.mem.0.2_1 main@%shadow.mem.0.2_0))
                (=> (and main@_bb5_0 main@_bb9_0)
                    (= main@%.03.i_2 main@%.03.i_1))
                main@_bb5_0)))
  (=> a!1
      (main@_bb5 main@%.0.i_0
                 main@%_0_0
                 main@%.01.i_0
                 main@%.03.i_2
                 main@%_3_0
                 main@%shadow.mem.0.2_1))))
(rule (let ((a!1 (=> main@_bb8_0
               (= main@%_17_0 (+ main@%_0_0 (* 0 609468416) (* main@%_16_0 4)))))
      (a!2 (=> main@_bb8_0 (= main@%_19_0 (+ main@%_17_0 (* main@%_18_0 4)))))
      (a!3 (=> main@_bb8_0 (= main@%_21_0 (+ main@%_19_0 (* main@%_20_0 4)))))
      (a!4 (=> main@_bb8_0 (= main@%_22_0 (+ main@%_21_0 (* main@%.05.i_0 4))))))
(let ((a!5 (and (main@_bb7 main@%.0.i_0
                           main@%_0_0
                           main@%.01.i_0
                           main@%.03.i_0
                           main@%.05.i_0
                           main@%shadow.mem.0.3_0
                           main@%_3_0)
                true
                (= main@%_14_0 (< main@%.05.i_0 2000))
                (=> main@_bb8_0 (and main@_bb8_0 main@_bb7_0))
                (=> (and main@_bb8_0 main@_bb7_0) main@%_14_0)
                (=> main@_bb8_0 (= main@%_16_0 (* main@%.0.i_0 1105032704)))
                a!1
                (=> main@_bb8_0 (or (<= main@%_0_0 0) (> main@%_17_0 0)))
                (=> main@_bb8_0 (= main@%_18_0 (* main@%.01.i_0 3600000)))
                a!2
                (=> main@_bb8_0 (or (<= main@%_17_0 0) (> main@%_19_0 0)))
                (=> main@_bb8_0 (= main@%_20_0 (* main@%.03.i_0 2000)))
                a!3
                (=> main@_bb8_0 (or (<= main@%_19_0 0) (> main@%_21_0 0)))
                a!4
                (=> main@_bb8_0 (or (<= main@%_21_0 0) (> main@%_22_0 0)))
                (=> main@_bb8_0 (> main@%_21_0 0))
                (=> main@_bb8_0
                    (= main@%sm_0
                       (store main@%shadow.mem.0.3_0 main@%_22_0 main@%_3_0)))
                (=> main@_bb8_0 (= main@%_23_0 (+ main@%.05.i_0 1)))
                (=> main@_bb7_1 (and main@_bb7_1 main@_bb8_0))
                (=> (and main@_bb7_1 main@_bb8_0)
                    (= main@%shadow.mem.0.3_1 main@%sm_0))
                (=> (and main@_bb7_1 main@_bb8_0) (= main@%.05.i_1 main@%_23_0))
                (=> (and main@_bb7_1 main@_bb8_0)
                    (= main@%shadow.mem.0.3_2 main@%shadow.mem.0.3_1))
                (=> (and main@_bb7_1 main@_bb8_0)
                    (= main@%.05.i_2 main@%.05.i_1))
                main@_bb7_1)))
  (=> a!5
      (main@_bb7 main@%.0.i_0
                 main@%_0_0
                 main@%.01.i_0
                 main@%.03.i_0
                 main@%.05.i_2
                 main@%shadow.mem.0.3_2
                 main@%_3_0)))))
(query main@verifier.error.split)

